p cnf 1541
-21 -483
-22 -486
-23 -489
-24 -492
-25 -495
-26 -498
-27 -501
-28 -504
-29 -507
-30 -510
-31 -513
-32 -516
-33 -519
-34 -522
-35 -525
-36 -528
-37 -531
-38 -534
-39 -537
-40 -540
-41 541
-42 542
-43 543
-44 544
-45 545
-46 546
-47 547
-48 548
-49 549
-50 550
-51 551
-52 552
-53 553
-54 554
-55 -22
-55 -23
22 23 55
-56 -24
-56 -25
24 25 56
-57 -26
-57 -27
26 27 57
-58 -28
-58 -29
28 29 58
-59 -30
-59 -31
30 31 59
-60 -32
-60 -33
32 33 60
-61 -34
-61 -35
34 35 61
-62 -36
-62 -37
36 37 62
-63 -38
-63 -39
38 39 63
-64 -40
-64 -41
40 41 64
-65 -42
-65 -43
42 43 65
-66 -44
-66 -45
44 45 66
-67 -46
-67 -47
46 47 67
-68 -48
-68 -49
48 49 68
-69 -50
-69 -51
50 51 69
-70 -52
-70 -53
52 53 70
-71 55
-71 56
-55 -56 71
-72 57
-72 58
-57 -58 72
-73 59
-73 60
-59 -60 73
-74 61
-74 62
-61 -62 74
-75 63
-75 64
-63 -64 75
-76 65
-76 66
-65 -66 76
-77 67
-77 68
-67 -68 77
-78 69
-78 70
-69 -70 78
-79 71
-79 72
-71 -72 79
-80 73
-80 74
-73 -74 80
-81 75
-81 76
-75 -76 81
-82 77
-82 78
-77 -78 82
-83 79
-83 80
-79 -80 83
-84 81
-84 82
-81 -82 84
-85 83
-85 84
-83 -84 85
-86 -54
-86 85
54 -85 86
-87 -21
-87 22
21 -22 87
-88 21
-88 -22
-21 22 88
-89 -87
-89 -88
87 88 89
-90 21
-90 22
-21 -22 90
-91 -21
-91 -89
21 89 91
-92 21
-92 89
-21 -89 92
-93 -91
-93 -92
91 92 93
-94 21
-94 -89
-21 89 94
-95 -90
-95 -94
90 94 95
-96 -22
-96 23
22 -23 96
-97 22
-97 -23
-22 23 97
-98 -96
-98 -97
96 97 98
-99 22
-99 23
-22 -23 99
-100 95
-100 -98
-95 98 100
-101 -95
-101 98
95 -98 101
-102 -100
-102 -101
100 101 102
-103 -95
-103 -98
95 98 103
-104 -99
-104 -103
99 103 104
-105 -23
-105 24
23 -24 105
-106 23
-106 -24
-23 24 106
-107 -105
-107 -106
105 106 107
-108 23
-108 24
-23 -24 108
-109 104
-109 -107
-104 107 109
-110 -104
-110 107
104 -107 110
-111 -109
-111 -110
109 110 111
-112 -104
-112 -107
104 107 112
-113 -108
-113 -112
108 112 113
-114 -24
-114 25
24 -25 114
-115 24
-115 -25
-24 25 115
-116 -114
-116 -115
114 115 116
-117 24
-117 25
-24 -25 117
-118 113
-118 -116
-113 116 118
-119 -113
-119 116
113 -116 119
-120 -118
-120 -119
118 119 120
-121 -113
-121 -116
113 116 121
-122 -117
-122 -121
117 121 122
-123 -25
-123 26
25 -26 123
-124 25
-124 -26
-25 26 124
-125 -123
-125 -124
123 124 125
-126 25
-126 26
-25 -26 126
-127 122
-127 -125
-122 125 127
-128 -122
-128 125
122 -125 128
-129 -127
-129 -128
127 128 129
-130 -122
-130 -125
122 125 130
-131 -126
-131 -130
126 130 131
-132 -26
-132 27
26 -27 132
-133 26
-133 -27
-26 27 133
-134 -132
-134 -133
132 133 134
-135 26
-135 27
-26 -27 135
-136 131
-136 -134
-131 134 136
-137 -131
-137 134
131 -134 137
-138 -136
-138 -137
136 137 138
-139 -131
-139 -134
131 134 139
-140 -135
-140 -139
135 139 140
-141 -27
-141 28
27 -28 141
-142 27
-142 -28
-27 28 142
-143 -141
-143 -142
141 142 143
-144 27
-144 28
-27 -28 144
-145 140
-145 -143
-140 143 145
-146 -140
-146 143
140 -143 146
-147 -145
-147 -146
145 146 147
-148 -140
-148 -143
140 143 148
-149 -144
-149 -148
144 148 149
-150 -28
-150 29
28 -29 150
-151 28
-151 -29
-28 29 151
-152 -150
-152 -151
150 151 152
-153 28
-153 29
-28 -29 153
-154 149
-154 -152
-149 152 154
-155 -149
-155 152
149 -152 155
-156 -154
-156 -155
154 155 156
-157 -149
-157 -152
149 152 157
-158 -153
-158 -157
153 157 158
-159 -29
-159 30
29 -30 159
-160 29
-160 -30
-29 30 160
-161 -159
-161 -160
159 160 161
-162 29
-162 30
-29 -30 162
-163 158
-163 -161
-158 161 163
-164 -158
-164 161
158 -161 164
-165 -163
-165 -164
163 164 165
-166 -158
-166 -161
158 161 166
-167 -162
-167 -166
162 166 167
-168 -30
-168 31
30 -31 168
-169 30
-169 -31
-30 31 169
-170 -168
-170 -169
168 169 170
-171 30
-171 31
-30 -31 171
-172 167
-172 -170
-167 170 172
-173 -167
-173 170
167 -170 173
-174 -172
-174 -173
172 173 174
-175 -167
-175 -170
167 170 175
-176 -171
-176 -175
171 175 176
-177 -31
-177 32
31 -32 177
-178 31
-178 -32
-31 32 178
-179 -177
-179 -178
177 178 179
-180 31
-180 32
-31 -32 180
-181 176
-181 -179
-176 179 181
-182 -176
-182 179
176 -179 182
-183 -181
-183 -182
181 182 183
-184 -176
-184 -179
176 179 184
-185 -180
-185 -184
180 184 185
-186 -32
-186 33
32 -33 186
-187 32
-187 -33
-32 33 187
-188 -186
-188 -187
186 187 188
-189 32
-189 33
-32 -33 189
-190 185
-190 -188
-185 188 190
-191 -185
-191 188
185 -188 191
-192 -190
-192 -191
190 191 192
-193 -185
-193 -188
185 188 193
-194 -189
-194 -193
189 193 194
-195 -33
-195 34
33 -34 195
-196 33
-196 -34
-33 34 196
-197 -195
-197 -196
195 196 197
-198 33
-198 34
-33 -34 198
-199 194
-199 -197
-194 197 199
-200 -194
-200 197
194 -197 200
-201 -199
-201 -200
199 200 201
-202 -194
-202 -197
194 197 202
-203 -198
-203 -202
198 202 203
-204 -34
-204 35
34 -35 204
-205 34
-205 -35
-34 35 205
-206 -204
-206 -205
204 205 206
-207 34
-207 35
-34 -35 207
-208 203
-208 -206
-203 206 208
-209 -203
-209 206
203 -206 209
-210 -208
-210 -209
208 209 210
-211 -203
-211 -206
203 206 211
-212 -207
-212 -211
207 211 212
-213 -35
-213 36
35 -36 213
-214 35
-214 -36
-35 36 214
-215 -213
-215 -214
213 214 215
-216 35
-216 36
-35 -36 216
-217 212
-217 -215
-212 215 217
-218 -212
-218 215
212 -215 218
-219 -217
-219 -218
217 218 219
-220 -212
-220 -215
212 215 220
-221 -216
-221 -220
216 220 221
-222 -36
-222 37
36 -37 222
-223 36
-223 -37
-36 37 223
-224 -222
-224 -223
222 223 224
-225 36
-225 37
-36 -37 225
-226 221
-226 -224
-221 224 226
-227 -221
-227 224
221 -224 227
-228 -226
-228 -227
226 227 228
-229 -221
-229 -224
221 224 229
-230 -225
-230 -229
225 229 230
-231 -37
-231 38
37 -38 231
-232 37
-232 -38
-37 38 232
-233 -231
-233 -232
231 232 233
-234 37
-234 38
-37 -38 234
-235 230
-235 -233
-230 233 235
-236 -230
-236 233
230 -233 236
-237 -235
-237 -236
235 236 237
-238 -230
-238 -233
230 233 238
-239 -234
-239 -238
234 238 239
-240 -38
-240 39
38 -39 240
-241 38
-241 -39
-38 39 241
-242 -240
-242 -241
240 241 242
-243 38
-243 39
-38 -39 243
-244 239
-244 -242
-239 242 244
-245 -239
-245 242
239 -242 245
-246 -244
-246 -245
244 245 246
-247 -239
-247 -242
239 242 247
-248 -243
-248 -247
243 247 248
-249 -39
-249 40
39 -40 249
-250 39
-250 -40
-39 40 250
-251 -249
-251 -250
249 250 251
-252 39
-252 40
-39 -40 252
-253 248
-253 -251
-248 251 253
-254 -248
-254 251
248 -251 254
-255 -253
-255 -254
253 254 255
-256 -248
-256 -251
248 251 256
-257 -252
-257 -256
252 256 257
-258 -40
-258 41
40 -41 258
-259 40
-259 -41
-40 41 259
-260 -258
-260 -259
258 259 260
-261 40
-261 41
-40 -41 261
-262 257
-262 -260
-257 260 262
-263 -257
-263 260
257 -260 263
-264 -262
-264 -263
262 263 264
-265 -257
-265 -260
257 260 265
-266 -261
-266 -265
261 265 266
-267 -41
-267 42
41 -42 267
-268 41
-268 -42
-41 42 268
-269 -267
-269 -268
267 268 269
-270 41
-270 42
-41 -42 270
-271 266
-271 -269
-266 269 271
-272 -266
-272 269
266 -269 272
-273 -271
-273 -272
271 272 273
-274 -266
-274 -269
266 269 274
-275 -270
-275 -274
270 274 275
-276 -42
-276 43
42 -43 276
-277 42
-277 -43
-42 43 277
-278 -276
-278 -277
276 277 278
-279 42
-279 43
-42 -43 279
-280 275
-280 -278
-275 278 280
-281 -275
-281 278
275 -278 281
-282 -280
-282 -281
280 281 282
-283 -275
-283 -278
275 278 283
-284 -279
-284 -283
279 283 284
-285 -43
-285 44
43 -44 285
-286 43
-286 -44
-43 44 286
-287 -285
-287 -286
285 286 287
-288 43
-288 44
-43 -44 288
-289 284
-289 -287
-284 287 289
-290 -284
-290 287
284 -287 290
-291 -289
-291 -290
289 290 291
-292 -284
-292 -287
284 287 292
-293 -288
-293 -292
288 292 293
-294 -44
-294 45
44 -45 294
-295 44
-295 -45
-44 45 295
-296 -294
-296 -295
294 295 296
-297 44
-297 45
-44 -45 297
-298 293
-298 -296
-293 296 298
-299 -293
-299 296
293 -296 299
-300 -298
-300 -299
298 299 300
-301 -293
-301 -296
293 296 301
-302 -297
-302 -301
297 301 302
-303 -45
-303 46
45 -46 303
-304 45
-304 -46
-45 46 304
-305 -303
-305 -304
303 304 305
-306 45
-306 46
-45 -46 306
-307 302
-307 -305
-302 305 307
-308 -302
-308 305
302 -305 308
-309 -307
-309 -308
307 308 309
-310 -302
-310 -305
302 305 310
-311 -306
-311 -310
306 310 311
-312 -46
-312 47
46 -47 312
-313 46
-313 -47
-46 47 313
-314 -312
-314 -313
312 313 314
-315 46
-315 47
-46 -47 315
-316 311
-316 -314
-311 314 316
-317 -311
-317 314
311 -314 317
-318 -316
-318 -317
316 317 318
-319 -311
-319 -314
311 314 319
-320 -315
-320 -319
315 319 320
-321 -47
-321 48
47 -48 321
-322 47
-322 -48
-47 48 322
-323 -321
-323 -322
321 322 323
-324 47
-324 48
-47 -48 324
-325 320
-325 -323
-320 323 325
-326 -320
-326 323
320 -323 326
-327 -325
-327 -326
325 326 327
-328 -320
-328 -323
320 323 328
-329 -324
-329 -328
324 328 329
-330 -48
-330 49
48 -49 330
-331 48
-331 -49
-48 49 331
-332 -330
-332 -331
330 331 332
-333 48
-333 49
-48 -49 333
-334 329
-334 -332
-329 332 334
-335 -329
-335 332
329 -332 335
-336 -334
-336 -335
334 335 336
-337 -329
-337 -332
329 332 337
-338 -333
-338 -337
333 337 338
-339 -49
-339 50
49 -50 339
-340 49
-340 -50
-49 50 340
-341 -339
-341 -340
339 340 341
-342 49
-342 50
-49 -50 342
-343 338
-343 -341
-338 341 343
-344 -338
-344 341
338 -341 344
-345 -343
-345 -344
343 344 345
-346 -338
-346 -341
338 341 346
-347 -342
-347 -346
342 346 347
-348 -50
-348 51
50 -51 348
-349 50
-349 -51
-50 51 349
-350 -348
-350 -349
348 349 350
-351 50
-351 51
-50 -51 351
-352 347
-352 -350
-347 350 352
-353 -347
-353 350
347 -350 353
-354 -352
-354 -353
352 353 354
-355 -347
-355 -350
347 350 355
-356 -351
-356 -355
351 355 356
-357 -51
-357 52
51 -52 357
-358 51
-358 -52
-51 52 358
-359 -357
-359 -358
357 358 359
-360 51
-360 52
-51 -52 360
-361 356
-361 -359
-356 359 361
-362 -356
-362 359
356 -359 362
-363 -361
-363 -362
361 362 363
-364 -356
-364 -359
356 359 364
-365 -360
-365 -364
360 364 365
-366 -52
-366 53
52 -53 366
-367 52
-367 -53
-52 53 367
-368 -366
-368 -367
366 367 368
-369 52
-369 53
-52 -53 369
-370 365
-370 -368
-365 368 370
-371 -365
-371 368
365 -368 371
-372 -370
-372 -371
370 371 372
-373 -365
-373 -368
365 368 373
-374 -369
-374 -373
369 373 374
-375 -53
-375 54
53 -54 375
-376 53
-376 -54
-53 54 376
-377 -375
-377 -376
375 376 377
-378 53
-378 54
-53 -54 378
-379 374
-379 -377
-374 377 379
-380 -374
-380 377
374 -377 380
-381 -379
-381 -380
379 380 381
-382 -374
-382 -377
374 377 382
-383 -378
-383 -382
378 382 383
-384 21
-384 -93
-21 93 384
-385 -21
-385 23
21 -23 385
-386 -384
-386 -385
384 385 386
-387 21
-387 -102
-21 102 387
-388 -21
-388 24
21 -24 388
-389 -387
-389 -388
387 388 389
-390 21
-390 -111
-21 111 390
-391 -21
-391 25
21 -25 391
-392 -390
-392 -391
390 391 392
-393 21
-393 -120
-21 120 393
-394 -21
-394 26
21 -26 394
-395 -393
-395 -394
393 394 395
-396 21
-396 -129
-21 129 396
-397 -21
-397 27
21 -27 397
-398 -396
-398 -397
396 397 398
-399 21
-399 -138
-21 138 399
-400 -21
-400 28
21 -28 400
-401 -399
-401 -400
399 400 401
-402 21
-402 -147
-21 147 402
-403 -21
-403 29
21 -29 403
-404 -402
-404 -403
402 403 404
-405 21
-405 -156
-21 156 405
-406 -21
-406 30
21 -30 406
-407 -405
-407 -406
405 406 407
-408 21
-408 -165
-21 165 408
-409 -21
-409 31
21 -31 409
-410 -408
-410 -409
408 409 410
-411 21
-411 -174
-21 174 411
-412 -21
-412 32
21 -32 412
-413 -411
-413 -412
411 412 413
-414 21
-414 -183
-21 183 414
-415 -21
-415 33
21 -33 415
-416 -414
-416 -415
414 415 416
-417 21
-417 -192
-21 192 417
-418 -21
-418 34
21 -34 418
-419 -417
-419 -418
417 418 419
-420 21
-420 -201
-21 201 420
-421 -21
-421 35
21 -35 421
-422 -420
-422 -421
420 421 422
-423 21
-423 -210
-21 210 423
-424 -21
-424 36
21 -36 424
-425 -423
-425 -424
423 424 425
-426 21
-426 -219
-21 219 426
-427 -21
-427 37
21 -37 427
-428 -426
-428 -427
426 427 428
-429 21
-429 -228
-21 228 429
-430 -21
-430 38
21 -38 430
-431 -429
-431 -430
429 430 431
-432 21
-432 -237
-21 237 432
-433 -21
-433 39
21 -39 433
-434 -432
-434 -433
432 433 434
-435 21
-435 -246
-21 246 435
-436 -21
-436 40
21 -40 436
-437 -435
-437 -436
435 436 437
-438 21
-438 -255
-21 255 438
-439 -21
-439 41
21 -41 439
-440 -438
-440 -439
438 439 440
-441 21
-441 -264
-21 264 441
-442 -21
-442 42
21 -42 442
-443 -441
-443 -442
441 442 443
-444 21
-444 -273
-21 273 444
-445 -21
-445 43
21 -43 445
-446 -444
-446 -445
444 445 446
-447 21
-447 -282
-21 282 447
-448 -21
-448 44
21 -44 448
-449 -447
-449 -448
447 448 449
-450 21
-450 -291
-21 291 450
-451 -21
-451 45
21 -45 451
-452 -450
-452 -451
450 451 452
-453 21
-453 -300
-21 300 453
-454 -21
-454 46
21 -46 454
-455 -453
-455 -454
453 454 455
-456 21
-456 -309
-21 309 456
-457 -21
-457 47
21 -47 457
-458 -456
-458 -457
456 457 458
-459 21
-459 -318
-21 318 459
-460 -21
-460 48
21 -48 460
-461 -459
-461 -460
459 460 461
-462 21
-462 -327
-21 327 462
-463 -21
-463 49
21 -49 463
-464 -462
-464 -463
462 463 464
-465 21
-465 -336
-21 336 465
-466 -21
-466 50
21 -50 466
-467 -465
-467 -466
465 466 467
-468 21
-468 -345
-21 345 468
-469 -21
-469 51
21 -51 469
-470 -468
-470 -469
468 469 470
-471 21
-471 -354
-21 354 471
-472 -21
-472 52
21 -52 472
-473 -471
-473 -472
471 472 473
-474 21
-474 -363
-21 363 474
-475 -21
-475 53
21 -53 475
-476 -474
-476 -475
474 475 476
-477 21
-477 -372
-21 372 477
-478 -21
-478 54
21 -54 478
-479 -477
-479 -478
477 478 479
-480 21
-480 -381
-21 381 480
-481 1
-481 86
-1 -86 481
-482 -86
-482 87
86 -87 482
-483 -481
-483 -482
481 482 483
-484 2
-484 86
-2 -86 484
-485 -86
-485 -386
86 386 485
-486 -484
-486 -485
484 485 486
-487 3
-487 86
-3 -86 487
-488 -86
-488 -389
86 389 488
-489 -487
-489 -488
487 488 489
-490 4
-490 86
-4 -86 490
-491 -86
-491 -392
86 392 491
-492 -490
-492 -491
490 491 492
-493 5
-493 86
-5 -86 493
-494 -86
-494 -395
86 395 494
-495 -493
-495 -494
493 494 495
-496 6
-496 86
-6 -86 496
-497 -86
-497 -398
86 398 497
-498 -496
-498 -497
496 497 498
-499 7
-499 86
-7 -86 499
-500 -86
-500 -401
86 401 500
-501 -499
-501 -500
499 500 501
-502 8
-502 86
-8 -86 502
-503 -86
-503 -404
86 404 503
-504 -502
-504 -503
502 503 504
-505 9
-505 86
-9 -86 505
-506 -86
-506 -407
86 407 506
-507 -505
-507 -506
505 506 507
-508 10
-508 86
-10 -86 508
-509 -86
-509 -410
86 410 509
-510 -508
-510 -509
508 509 510
-511 11
-511 86
-11 -86 511
-512 -86
-512 -413
86 413 512
-513 -511
-513 -512
511 512 513
-514 12
-514 86
-12 -86 514
-515 -86
-515 -416
86 416 515
-516 -514
-516 -515
514 515 516
-517 13
-517 86
-13 -86 517
-518 -86
-518 -419
86 419 518
-519 -517
-519 -518
517 518 519
-520 14
-520 86
-14 -86 520
-521 -86
-521 -422
86 422 521
-522 -520
-522 -521
520 521 522
-523 15
-523 86
-15 -86 523
-524 -86
-524 -425
86 425 524
-525 -523
-525 -524
523 524 525
-526 16
-526 86
-16 -86 526
-527 -86
-527 -428
86 428 527
-528 -526
-528 -527
526 527 528
-529 17
-529 86
-17 -86 529
-530 -86
-530 -431
86 431 530
-531 -529
-531 -530
529 530 531
-532 18
-532 86
-18 -86 532
-533 -86
-533 -434
86 434 533
-534 -532
-534 -533
532 533 534
-535 19
-535 86
-19 -86 535
-536 -86
-536 -437
86 437 536
-537 -535
-537 -536
535 536 537
-538 20
-538 86
-20 -86 538
-539 -86
-539 -440
86 440 539
-540 -538
-540 -539
538 539 540
-541 -86
-541 -443
86 443 541
-542 -86
-542 -446
86 446 542
-543 -86
-543 -449
86 449 543
-544 -86
-544 -452
86 452 544
-545 -86
-545 -455
86 455 545
-546 -86
-546 -458
86 458 546
-547 -86
-547 -461
86 461 547
-548 -86
-548 -464
86 464 548
-549 -86
-549 -467
86 467 549
-550 -86
-550 -470
86 470 550
-551 -86
-551 -473
86 473 551
-552 -86
-552 -476
86 476 552
-553 -86
-553 -479
86 479 553
-554 -86
-554 480
86 -480 554
-555 -54
-555 383
54 -383 555
-556 21
-556 -555
-21 555 556
556
